6 16 4 10
14 13 15 5 17 20 12 18 16 11 17 1 15 9 8 9 
2.09 4.9 4.9 8.62 8.61 14.18 12.11 15.51 7.45 9.53 9.05 11.09 15.52 13.67 4.57 2.83 
11.1 4.88 13.92 3.94 13.74 13.73 2.91 7.33 1.08 6.27 8.98 3.63 1.38 5.72 6.49 6.12 
13.06 9.1 2.8 12.53 15.93 8.75 2.43 3.25 4.78 15.69 9.53 2.66 5.73 6.65 7.15 15.01 
13.07 7.58 7.98 10.87 2.46 0.83 6.08 11.4 6.07 13.65 3.47 12.46 10.77 11.75 6.11 6.95 
8 8 8 8 8 8 8 8 8 8 8 8 8 8 8 8 
0.95 3.49 10.31 10.94 13.02 15.78 10.33 14.64 12.16 10.94 11.12 1.84 12.21 6.18 7.14 9.87 
1 1 1 1 1 1 1 1 1 1 1 1 1 1 1 1 
1 1 1 1 1 1 1 1 1 1 1 1 1 1 1 1 
1 1 1 1 1 1 1 1 1 1 1 1 1 1 1 1 
1 1 1 1 1 1 1 1 1 1 1 1 1 1 1 1 
1 1 1 1 1 1 1 1 1 1 1 1 1 1 1 1 
1 1 1 1 1 1 1 1 1 1 1 1 1 1 1 1 
0.01 0.01 0.01 0.01 0.01 0.01 0.01 0.01 0.01 0.01 0.01 0.01 0.01 0.01 0.01 0.01 
0.02 0.02 0.02 0.02 0.02 0.02 0.02 0.02 0.02 0.02 0.02 0.02 0.02 0.02 0.02 0.02 
0.03 0.03 0.03 0.03 0.03 0.03 0.03 0.03 0.03 0.03 0.03 0.03 0.03 0.03 0.03 0.03 
0.04 0.04 0.04 0.04 0.04 0.04 0.04 0.04 0.04 0.04 0.04 0.04 0.04 0.04 0.04 0.04 
0.05 0.05 0.05 0.05 0.05 0.05 0.05 0.05 0.05 0.05 0.05 0.05 0.05 0.05 0.05 0.05 
1 1 1 1 1 1 1 1 1 1 1 1 1 1 1 1 
